
Gurobi 13.0.1 (linux64) logging started Sun Mar 22 00:50:40 2026

Set parameter LogFile to value "logs/75B_6F_robust_gamma_0d75_theta_0d05199999999999999_2026-03-22_00h49m36s.log"
Set parameter MIPGap to value 0.005
Set parameter OptimalityTol to value 0.005
Gurobi Optimizer version 13.0.1 build v13.0.1rc0 (linux64 - "openSUSE Tumbleweed")

CPU model: Intel(R) Core(TM) i7-10610U CPU @ 1.80GHz, instruction set [SSE2|AVX|AVX2]
Thread count: 4 physical cores, 8 logical processors, using up to 8 threads

Non-default parameters:
TimeLimit  3600
SoftMemLimit  12
MIPGap  0.005
OptimalityTol  0.005

Optimize a model with 90326 rows, 1733346 columns and 5286408 nonzeros (Max)
Model fingerprint: 0x6ed54f2c
Model has 1665086 linear objective coefficients
Variable types: 23346 continuous, 1710000 integer (1710000 binary)
Coefficient statistics:
  Matrix range     [3e-05, 1e+05]
  Objective range  [1e+00, 3e+03]
  Bounds range     [1e+00, 1e+05]
  RHS range        [1e-02, 1e+05]

Presolve removed 46324 rows and 1252640 columns (presolve time = 5s)...
Presolve removed 46314 rows and 1252620 columns
Presolve time: 5.34s
Presolved: 44012 rows, 480726 columns, 1506877 nonzeros
Variable types: 11328 continuous, 469398 integer (469398 binary)
Found heuristic solution: objective -3.90470e+08
Deterministic concurrent LP optimizer: primal simplex, dual simplex, and barrier
Showing barrier log only...

Root barrier log...

Ordering time: 1.53s

Barrier statistics:
 AA' NZ     : 7.621e+05
 Factor NZ  : 6.411e+06 (roughly 260 MB of memory)
 Factor Ops : 1.809e+09 (less than 1 second per iteration)
 Threads    : 2

                  Objective                Residual
Iter       Primal          Dual         Primal    Dual     Compl     Time
   0  -1.43665076e+12  1.90875371e+09  2.08e+07 1.02e+03  8.71e+06    10s
   1  -1.85799232e+11  3.62687246e+09  2.70e+06 3.02e-11  1.15e+06    11s
   2  -1.87673220e+09  2.76657994e+09  2.70e+04 6.98e-11  1.43e+04    11s
   3  -2.97392580e+08  1.86367756e+09  7.03e+03 3.43e-11  4.40e+03    11s
   4   1.22325171e+08  9.76244535e+08  1.52e+03 3.59e-11  1.25e+03    12s
   5   2.03077711e+08  5.46699822e+08  4.58e+02 3.46e-11  4.47e+02    12s
   6   2.23714418e+08  3.72025318e+08  1.89e+02 3.73e-11  1.89e+02    13s
   7   2.34737064e+08  2.81462223e+08  4.49e+01 6.75e-11  5.59e+01    13s
   8   2.36820452e+08  2.57336363e+08  1.97e+01 4.23e-11  2.43e+01    13s
   9   2.37651544e+08  2.45816668e+08  1.02e+01 3.49e-10  9.71e+00    14s
  10   2.37954072e+08  2.42180001e+08  6.88e+00 2.07e-10  4.96e+00    14s
  11   2.38567980e+08  2.40361094e+08  4.49e-01 1.88e-10  1.85e+00    14s
  12   2.38675692e+08  2.39523087e+08  4.88e-02 1.77e-10  8.62e-01    15s
  13   2.38760586e+08  2.39272040e+08  1.71e-02 2.00e-10  5.20e-01    15s
  14   2.38796704e+08  2.39039607e+08  8.56e-03 2.13e-10  2.47e-01    16s
  15   2.38824101e+08  2.38946745e+08  3.01e-03 2.09e-10  1.25e-01    16s
  16   2.38837060e+08  2.38901800e+08  9.02e-04 1.88e-10  6.58e-02    16s
  17   2.38841266e+08  2.38875837e+08  2.61e-04 1.94e-10  3.52e-02    17s
  18   2.38842475e+08  2.38859038e+08  1.24e-04 2.26e-10  1.68e-02    17s
  19   2.38842964e+08  2.38855738e+08  9.12e-05 2.14e-10  1.30e-02    17s
  20   2.38843264e+08  2.38852957e+08  7.11e-05 2.29e-10  9.86e-03    18s
  21   2.38843635e+08  2.38850134e+08  4.70e-05 2.48e-10  6.61e-03    18s
  22   2.38843829e+08  2.38848300e+08  3.11e-05 2.21e-10  4.55e-03    19s
  23   2.38844156e+08  2.38847582e+08  9.27e-06 2.58e-10  3.48e-03    19s
  24   2.38844201e+08  2.38846722e+08  5.76e-06 2.45e-10  2.56e-03    19s
  25   2.38844244e+08  2.38845615e+08  3.88e-06 2.23e-10  1.39e-03    20s
  26   2.38844282e+08  2.38845090e+08  2.27e-06 2.01e-10  8.22e-04    20s
  27   2.38844294e+08  2.38844858e+08  1.79e-06 2.08e-10  5.73e-04    20s
  28   2.38844317e+08  2.38844629e+08  9.58e-07 1.84e-10  3.16e-04    21s
  29   2.38844333e+08  2.38844517e+08  3.49e-07 2.33e-10  1.86e-04    21s
  30   2.38844339e+08  2.38844442e+08  1.91e-07 2.01e-10  1.05e-04    21s
  31   2.38844345e+08  2.38844373e+08  7.03e-08 1.70e-10  2.77e-05    22s
  32   2.38844349e+08  2.38844357e+08  2.04e-08 1.83e-10  8.05e-06    22s
  33   2.38844350e+08  2.38844351e+08  2.30e-09 1.90e-10  7.05e-07    23s
  34   2.38844351e+08  2.38844351e+08  5.20e-09 1.66e-10  1.63e-09    23s

Barrier solved model in 34 iterations and 22.95 seconds (15.41 work units)
Optimal objective 2.38844351e+08


Root crossover log...

   14108 DPushes remaining with DInf 7.7397786e-02                23s
       0 DPushes remaining with DInf 0.0000000e+00                23s

   10291 PPushes remaining with PInf 4.3761473e-03                24s
       0 PPushes remaining with PInf 0.0000000e+00                25s

  Push phase complete: Pinf 0.0000000e+00, Dinf 2.7605809e+05     25s


Root simplex log...

Iteration    Objective       Primal Inf.    Dual Inf.      Time
   23694    2.3884435e+08   0.000000e+00   2.760579e+05     25s
   24063    2.3884435e+08   0.000000e+00   2.868881e+05     25s
   28491    2.3884435e+08   0.000000e+00   1.038970e+06     30s
   32181    2.3884435e+08   0.000000e+00   9.448536e+05     35s
   36240    2.3884435e+08   0.000000e+00   4.325317e+04     40s
   37624    2.3884435e+08   0.000000e+00   0.000000e+00     42s
Crossover time: 19.00 seconds (12.50 work units)
Concurrent spin time: 2.71s

Solved with barrier

Root relaxation: objective 2.388444e+08, 37624 iterations, 37.66 seconds (20.94 work units)

    Nodes    |    Current Node    |     Objective Bounds      |     Work
 Expl Unexpl |  Obj  Depth IntInf | Incumbent    BestBd   Gap | It/Node Time

     0     0 2.3884e+08    0 6853 -3.905e+08 2.3884e+08   161%     -   52s
H    0     0                    -1.44616e+08 2.3884e+08   265%     -   67s
H    0     0                    -9154414.049 2.3884e+08  2709%     -   72s
H    0     0                    9.456211e+07 2.3884e+08   153%     -   77s
H    0     0                    1.394197e+08 2.3884e+08  71.3%     -   80s
H    0     0                    1.394200e+08 2.3884e+08  71.3%     -   94s
     0     0 2.3884e+08    0 7174 1.3942e+08 2.3884e+08  71.3%     - 1145s
H    0     0                    1.996281e+08 2.3884e+08  19.6%     - 1148s
H    0     0                    2.054373e+08 2.3884e+08  16.3%     - 1148s
H    0     0                    2.055497e+08 2.3884e+08  16.2%     - 1154s
H    0     0                    2.057830e+08 2.3884e+08  16.1%     - 1170s
H    0     0                    2.063616e+08 2.3884e+08  15.7%     - 1170s
H    0     0                    2.065345e+08 2.3884e+08  15.6%     - 1171s
H    0     0                    2.073034e+08 2.3884e+08  15.2%     - 1174s
H    0     0                    2.076594e+08 2.3884e+08  15.0%     - 1183s
H    0     0                    2.224880e+08 2.3884e+08  7.35%     - 1424s
H    0     0                    2.254135e+08 2.3884e+08  5.96%     - 1504s
H    0     0                    2.254155e+08 2.3884e+08  5.96%     - 1552s
H    0     0                    2.254221e+08 2.3884e+08  5.95%     - 1556s
H    0     0                    2.254243e+08 2.3884e+08  5.95%     - 1566s
H    0     0                    2.254736e+08 2.3884e+08  5.93%     - 1576s
H    0     0                    2.254739e+08 2.3884e+08  5.93%     - 1598s
H    0     0                    2.254740e+08 2.3884e+08  5.93%     - 2334s
     0     0 2.3884e+08    0 7095 2.2547e+08 2.3884e+08  5.93%     - 2804s
     0     0          -    0      2.2547e+08 2.3884e+08  5.93%     - 3600s

Cutting planes:
  MIR: 82
  Flow cover: 92
  RLT: 2492

Explored 1 nodes (641811 simplex iterations) in 3600.14 seconds (4680.22 work units)
Thread count was 8 (of 8 available processors)

Solution count 10: 2.25474e+08 2.25474e+08 2.25474e+08 ... 2.07303e+08

Time limit reached
Best objective 2.254740156335e+08, best bound 2.388443296181e+08, gap 5.9299%
